c File: sample.cnf 
c 
c Curresponding author: KeumBae Cho (kbcho98@snu.ac.kr) 
c 
c 
c This CNF file was generated by the dual toroidal binomial tree and modular random capsuling method
c 
c 
c solution1 1 -2 -3 4 5 6 7 8 9 10 -11 12 13 14 15 16 17 -18 -19 -20 -21 -22 -23 24 25 26 -27 -28 -29 -30 31 32 -33 -34 -35 -36 37 38 39 40 41 42 -43 -44 45 -46 -47 48 -49 50 -51 52 -53 54 55 -56 -57 58 -59 -60 -61 62 63 64 65 66 67 -68 69 -70 71 72 73 74 75 -76 -77 78 79 80 -81 82 -83 84 85 86 -87 88 89 90 -91 92 93 -94 -95 96 97 -98 99 -100 -101 102 -103 104 -105 106 107 -108 -109 -110 111 112 -113 114 -115 -116 -117 -118 -119 -120 121 122 -123 124 -125 -126 127 128 129 130 -131 132 -133 -134 -135 136 137 138 -139 140 -141 142 -143 144 145 146 -147 -148 -149 -150 151 -152 -153 -154 -155 156 157 -158 159 160 -161 -162 -163 -164 -165 -166 -167 -168 169 -170 -171 172 173 -174 -175 176 -177 -178 179 -180 181 -182 -183 184 185 186 -187 188 189 190 191 192 -193 -194 -195 -196 -197 198 199 -200 201 202 203 -204 205 206 -207 208 -209 210 -211 212 213 214 -215 216 217 -218 219 220 221 -222 -223 -224 -225 -226 -227 -228 229 -230 231 232 -233 234 235 -236 -237 238 239 -240 241 -242 243 -244 245 246 247 248 249 -250 -251 -252 -253 254 -255 256 257 258 259 260 -261 -262 263 -264 -265 -266 267 268 269 270 271 272 -273 274 275 276 277 278 279 280 -281 -282 283 -284 -285 -286 -287 -288 -289 290 -291 -292 -293 294 -295 -296 -297 -298 299 -300 301 -302 303 -304 305 306 -307 -308 -309 -310 -311 312 313 -314 315 316 317 318 -319 320 -321 -322 323 -324 -325 -326 327 328 329 330 331 -332 -333 -334 335 336 337 338 -339 340 341 -342 -343 -344 345 -346 -347 -348 349 -350 -351 -352 -353 -354 355 356 -357 -358 359 360 -361 362 363 364 365 -366 367 -368 -369 -370 371 -372 373 -374 -375 -376 -377 378 -379 380 -381 -382 -383 384 385 386 387 388 389 390 -391 -392 -393 -394 395 396 -397 -398 399 -400 401 402 403 404 405 406 0
c 
c -compliments of solution1-
c solution2 -1 2 3 -4 -5 -6 -7 -8 -9 -10 11 -12 -13 -14 -15 -16 -17 18 19 20 21 22 23 -24 -25 -26 27 28 29 30 -31 -32 33 34 35 36 -37 -38 -39 -40 -41 -42 43 44 -45 46 47 -48 49 -50 51 -52 53 -54 -55 56 57 -58 59 60 61 -62 -63 -64 -65 -66 -67 68 -69 70 -71 -72 -73 -74 -75 76 77 -78 -79 -80 81 -82 83 -84 -85 -86 87 -88 -89 -90 91 -92 -93 94 95 -96 -97 98 -99 100 101 -102 103 -104 105 -106 -107 108 109 110 -111 -112 113 -114 115 116 117 118 119 120 -121 -122 123 -124 125 126 -127 -128 -129 -130 131 -132 133 134 135 -136 -137 -138 139 -140 141 -142 143 -144 -145 -146 147 148 149 150 -151 152 153 154 155 -156 -157 158 -159 -160 161 162 163 164 165 166 167 168 -169 170 171 -172 -173 174 175 -176 177 178 -179 180 -181 182 183 -184 -185 -186 187 -188 -189 -190 -191 -192 193 194 195 196 197 -198 -199 200 -201 -202 -203 204 -205 -206 207 -208 209 -210 211 -212 -213 -214 215 -216 -217 218 -219 -220 -221 222 223 224 225 226 227 228 -229 230 -231 -232 233 -234 -235 236 237 -238 -239 240 -241 242 -243 244 -245 -246 -247 -248 -249 250 251 252 253 -254 255 -256 -257 -258 -259 -260 261 262 -263 264 265 266 -267 -268 -269 -270 -271 -272 273 -274 -275 -276 -277 -278 -279 -280 281 282 -283 284 285 286 287 288 289 -290 291 292 293 -294 295 296 297 298 -299 300 -301 302 -303 304 -305 -306 307 308 309 310 311 -312 -313 314 -315 -316 -317 -318 319 -320 321 322 -323 324 325 326 -327 -328 -329 -330 -331 332 333 334 -335 -336 -337 -338 339 -340 -341 342 343 344 -345 346 347 348 -349 350 351 352 353 354 -355 -356 357 358 -359 -360 361 -362 -363 -364 -365 366 -367 368 369 370 -371 372 -373 374 375 376 377 -378 379 -380 381 382 383 -384 -385 -386 -387 -388 -389 -390 391 392 393 394 -395 -396 397 398 -399 400 -401 -402 -403 -404 -405 -406 0
c 
-246 -195 -23 0
-110 292 -30 0
249 299 -312 0
-187 224 406 0
-23 144 -328 0
-190 -309 -29 0
-97 -287 -284 0
-138 -21 -288 0
-269 208 299 0
-55 385 -180 0
-298 12 -82 0
-30 315 -313 0
64 40 -235 0
39 383 -175 0
385 -184 69 0
-154 -340 -118 0
337 -167 204 0
111 -234 -326 0
-68 31 -24 0
373 -146 -251 0
-68 212 286 0
-187 -335 42 0
244 189 32 0
-404 132 -123 0
-109 -131 251 0
-183 293 -326 0
-209 -115 289 0
16 -164 -173 0
333 -348 -289 0
-51 -135 164 0
275 347 246 0
380 38 110 0
312 -91 252 0
66 -406 -47 0
-114 277 328 0
356 29 52 0
-107 97 -43 0
21 14 356 0
269 355 118 0
180 -207 45 0
82 11 -43 0
-315 -18 -204 0
78 87 235 0
-39 213 -134 0
277 -63 184 0
318 -223 154 0
136 -331 -204 0
9 386 -111 0
71 291 24 0
-351 -373 -11 0
19 373 -286 0
-42 -109 140 0
362 -84 -244 0
-351 123 75 0
-213 355 -251 0
198 318 183 0
-164 -217 213 0
-382 -198 71 0
-25 -296 -333 0
-296 31 51 0
-76 -347 -199 0
-155 -380 -115 0
-252 -179 -28 0
-66 -225 128 0
-296 114 -203 0
89 -43 -52 0
330 107 -169 0
-311 -14 403 0
128 -118 -303 0
31 207 88 0
70 -368 -11 0
18 -230 359 0
-186 -87 -200 0
-152 -213 -400 0
-143 -16 63 0
203 -379 223 0
254 -386 331 0
-150 -9 -161 0
133 -200 -291 0
-161 206 11 0
-19 183 313 0
-370 -140 -2 0
313 84 -26 0
-75 -170 -222 0
-119 26 308 0
170 -297 121 0
-361 -258 217 0
-71 -252 -44 0
122 -359 25 0
249 296 65 0
199 156 60 0
155 388 341 0
179 207 -332 0
63 -141 -128 0
203 66 116 0
43 -250 74 0
-302 150 169 0
202 -403 399 0
-272 10 303 0
362 -88 -162 0
-332 -70 -54 0
-398 -359 312 0
-96 186 10 0
-182 303 152 0
-50 112 16 0
-250 -203 159 0
-86 386 188 0
150 362 371 0
-133 248 -317 0
-324 127 -206 0
85 -183 -160 0
2 189 312 0
-311 -388 160 0
-189 -302 -215 0
132 -308 -323 0
-215 297 4 0
-311 258 -5 0
252 -228 -19 0
403 -106 359 0
-397 -143 -249 0
-60 -46 297 0
-120 -341 -377 0
403 -207 153 0
-68 141 17 0
-116 132 334 0
-74 54 99 0
-150 237 -218 0
130 -399 327 0
272 20 -218 0
301 -255 162 0
54 92 100 0
142 -68 398 0
96 -372 319 0
301 -303 279 0
92 50 -216 0
316 -159 -376 0
214 -198 86 0
-371 199 280 0
317 -193 -75 0
402 -105 324 0
300 75 -53 0
-49 105 -196 0
388 322 -175 0
-148 302 -347 0
323 -259 -94 0
-4 64 58 0
5 -175 -206 0
228 -158 92 0
250 -233 106 0
143 231 278 0
123 39 -297 0
377 328 -218 0
-153 -58 -295 0
-358 -17 172 0
44 -334 205 0
401 -99 -321 0
-237 -90 349 0
-130 401 -368 0
-20 -393 -145 0
82 255 -194 0
80 321 -100 0
64 -142 -101 0
-319 -94 -142 0
26 276 -279 0
-367 -163 216 0
112 376 144 0
198 161 356 0
-280 231 306 0
-161 -266 110 0
5 -394 -306 0
-81 -300 -8 0
122 49 -197 0
-322 -49 -257 0
-284 124 347 0
259 -98 177 0
-58 124 229 0
206 147 -310 0
-94 -92 -153 0
285 -250 274 0
-278 137 258 0
-105 -276 -123 0
218 -94 220 0
326 58 -105 0
104 -172 205 0
158 -98 -44 0
254 321 331 0
-56 353 90 0
294 208 368 0
267 145 -327 0
32 194 -46 0
-321 -42 -310 0
101 186 179 0
33 -292 142 0
-346 -276 104 0
227 367 -293 0
-112 267 263 0
-227 -174 -73 0
-393 -263 -81 0
-130 1 -110 0
-60 -113 394 0
-62 -139 8 0
257 245 -122 0
-263 257 234 0
-282 -253 284 0
-177 283 -301 0
-193 78 -229 0
-147 -139 -378 0
-165 -392 153 0
-285 374 234 0
277 -103 -137 0
21 -264 276 0
396 349 -220 0
-268 -326 402 0
-193 -344 -205 0
379 -158 -2 0
-174 -331 136 0
-353 318 376 0
6 136 -294 0
327 -383 135 0
-354 46 156 0
-360 74 42 0
367 -186 -253 0
-33 318 255 0
346 360 -113 0
-255 9 -389 0
-298 -360 -200 0
-138 -236 73 0
395 -226 393 0
130 282 151 0
41 60 -178 0
62 -125 342 0
247 -257 -322 0
108 263 -343 0
169 330 282 0
-357 301 -315 0
67 -334 -78 0
111 324 378 0
392 -56 365 0
-374 -340 151 0
-277 389 247 0
-21 221 262 0
-57 -349 395 0
159 352 268 0
-339 107 344 0
-379 111 -6 0
364 -200 174 0
61 -125 -376 0
-6 -236 -59 0
146 -135 -220 0
320 354 317 0
225 -236 360 0
378 -367 212 0
261 -366 -225 0
-281 69 -212 0
351 -398 389 0
192 -348 298 0
242 138 -397 0
-20 226 129 0
-282 270 -290 0
-41 -163 85 0
182 -281 -342 0
85 184 322 0
-173 -108 245 0
-281 -330 79 0
238 -140 315 0
-332 -67 97 0
-366 -294 -324 0
219 -365 -261 0
-335 340 -166 0
-237 -348 -389 0
13 47 -262 0
157 269 57 0
101 -352 270 0
339 238 96 0
117 185 6 0
129 -364 160 0
-401 -61 -281 0
-131 59 25 0
220 -166 354 0
90 84 -317 0
-239 17 -354 0
185 -90 13 0
-261 226 -170 0
-308 -126 -69 0
-351 -346 -399 0
-343 -192 -233 0
165 -288 -242 0
232 7 20 0
-336 -3 290 0
163 272 48 0
-196 -65 -182 0
-366 7 -184 0
371 148 173 0
-79 -119 -262 0
-196 -190 140 0
-289 151 332 0
168 121 294 0
336 151 261 0
335 162 201 0
-273 237 355 0
-47 -192 363 0
-157 -209 -3 0
381 -101 -375 0
-95 -96 -372 0
-117 -307 -15 0
106 -209 -160 0
41 401 325 0
-25 -195 -34 0
-325 -339 -396 0
12 271 195 0
-124 239 -339 0
-139 -185 -285 0
-226 -51 -387 0
126 387 -211 0
-232 399 405 0
233 -375 -244 0
278 -165 -88 0
275 -232 -285 0
113 345 336 0
80 -272 -149 0
-157 -155 65 0
405 366 -350 0
-243 -148 -35 0
-314 262 -177 0
-194 190 36 0
289 -375 210 0
-45 -273 -168 0
-336 -70 73 0
-210 -155 -162 0
-355 80 181 0
-306 192 129 0
3 -342 -125 0
-381 405 -7 0
384 -98 95 0
180 -35 15 0
-106 387 260 0
-67 256 -180 0
-260 -30 -53 0
-95 396 -229 0
-187 329 -271 0
280 124 -299 0
256 -361 139 0
387 -189 52 0
-35 -309 211 0
232 141 -382 0
244 385 -374 0
-64 88 191 0
-275 40 16 0
390 68 -113 0
-288 149 114 0
-12 157 -29 0
-405 -118 191 0
-385 243 280 0
-53 177 132 0
-95 209 -36 0
-210 -251 -374 0
45 -27 23 0
-295 -175 70 0
210 -223 287 0
72 -295 -181 0
390 -337 306 0
-326 342 274 0
7 131 -369 0
-357 -227 -384 0
-131 344 241 0
-23 -134 227 0
67 241 -355 0
-91 30 386 0
229 338 348 0
-28 318 187 0
172 299 43 0
-83 361 1 0
-350 189 91 0
-351 309 -369 0
338 -141 211 0
217 -47 -385 0
-362 -253 64 0
-16 345 -133 0
79 -275 -68 0
288 -167 145 0
-277 406 12 0
118 -109 345 0
385 -370 -247 0
45 -132 -369 0
-71 -209 93 0
-116 356 251 0
4 -136 -23 0
175 -204 -117 0
-287 219 -78 0
-72 -87 -135 0
79 -373 337 0
38 326 -91 0
-314 373 76 0
-38 -222 -352 0
-344 164 -57 0
241 134 243 0
355 -152 28 0
-386 241 -382 0
-348 -330 48 0
-225 -240 -318 0
176 -43 -313 0
-333 -161 83 0
37 -91 -254 0
-379 351 93 0
154 48 -211 0
-230 47 -304 0
-314 368 362 0
-36 133 -353 0
275 -72 -34 0
31 -304 -145 0
277 394 -187 0
93 109 89 0
-34 296 247 0
-147 -45 -311 0
143 71 -57 0
62 -356 -115 0
-152 -128 136 0
-147 204 -400 0
-392 78 200 0
135 -240 -370 0
-200 -197 302 0
127 37 370 0
-76 -304 332 0
222 312 37 0
-66 -164 181 0
362 -286 -243 0
119 -309 -28 0
63 235 382 0
-85 330 231 0
225 388 -286 0
-156 202 313 0
202 -22 161 0
254 38 -365 0
-265 -250 379 0
361 -154 -222 0
176 65 230 0
-240 -368 -188 0
363 353 -77 0
231 72 -248 0
-307 -31 121 0
-122 -358 -394 0
214 -182 -89 0
-296 202 -279 0
311 338 -44 0
-112 -222 -143 0
115 -166 176 0
128 364 -10 0
-287 400 338 0
-109 10 134 0
-19 313 287 0
-302 -284 46 0
-383 -397 -127 0
77 -332 -298 0
-312 313 327 0
-316 66 -115 0
316 -293 -362 0
31 -119 83 0
-120 -63 -224 0
85 -214 32 0
335 -61 -388 0
-195 156 218 0
-202 234 283 0
365 208 311 0
-215 138 250 0
208 103 -361 0
335 -65 199 0
-167 188 372 0
-224 402 77 0
-403 144 248 0
301 -121 173 0
69 193 122 0
182 -68 173 0
212 279 -92 0
54 190 44 0
112 -132 -298 0
166 221 55 0
163 82 132 0
-221 64 -183 0
-80 -134 246 0
-148 19 -180 0
-349 -244 -46 0
-381 397 -21 0
94 -77 -244 0
-110 -327 328 0
97 295 316 0
-316 26 373 0
175 -83 97 0
373 120 -33 0
269 214 -39 0
61 42 82 0
-356 246 -218 0
-154 231 -283 0
184 -311 -205 0
144 215 -21 0
-251 126 -103 0
42 -199 401 0
24 233 -372 0
315 -196 -402 0
-289 53 403 0
-100 -301 -29 0
-193 -271 -251 0
-154 68 -158 0
24 393 92 0
-54 111 -358 0
-87 292 -393 0
258 -18 358 0
-163 -118 -274 0
-64 -207 267 0
331 80 98 0
208 -223 148 0
-87 49 349 0
124 66 381 0
56 -94 -11 0
66 104 -328 0
-305 -295 107 0
-26 254 140 0
63 -175 310 0
75 33 -168 0
-252 105 39 0
-82 14 50 0
356 -291 -267 0
-231 -94 14 0
266 205 -347 0
299 -144 213 0
-126 -333 293 0
32 -401 -207 0
-19 81 -233 0
9 5 196 0
-53 -252 377 0
213 100 179 0
-118 271 230 0
-197 198 158 0
383 186 -230 0
197 270 203 0
-292 174 179 0
-296 -165 -258 0
178 274 -183 0
-81 -267 -170 0
-98 26 -127 0
-43 -253 -208 0
-402 199 -49 0
-124 -152 396 0
-1 -56 26 0
-103 71 -104 0
305 217 -74 0
245 -254 403 0
-310 386 264 0
168 136 -150 0
303 -283 -105 0
88 -50 10 0
267 2 16 0
-150 -113 94 0
303 -266 139 0
-43 -325 -299 0
-293 -318 199 0
-155 -193 -32 0
25 -81 -234 0
206 156 -5 0
-377 -260 -70 0
-179 359 -291 0
265 258 260 0
291 169 371 0
-221 86 -383 0
-270 -334 74 0
-159 -174 160 0
165 247 371 0
-308 -55 -178 0
81 -236 189 0
-9 96 127 0
253 -200 -141 0
-151 402 160 0
-141 -396 -178 0
1 50 -146 0
378 159 103 0
74 357 -150 0
-245 -242 249 0
-111 317 -264 0
320 -398 -136 0
283 54 125 0
-252 -56 -10 0
-2 236 -207 0
74 395 113 0
-116 120 -139 0
325 249 337 0
359 -395 318 0
193 -76 -324 0
234 50 343 0
107 -398 -156 0
-343 -13 216 0
-107 97 -143 0
-265 -153 -320 0
130 -348 -169 0
281 221 323 0
130 334 -171 0
159 -334 398 0
-247 280 15 0
-153 -238 55 0
236 238 279 0
30 9 5 0
200 85 -376 0
391 -100 151 0
219 178 99 0
146 -270 -297 0
280 -378 -281 0
-357 166 388 0
242 8 142 0
-100 111 397 0
-131 -320 4 0
-245 -125 198 0
-255 129 56 0
-185 75 -236 0
-395 -264 -376 0
-120 75 -14 0
-255 -337 269 0
-237 395 366 0
84 76 17 0
-366 -201 -123 0
-84 7 306 0
13 346 -250 0
-343 306 -97 0
259 196 320 0
-101 348 -319 0
142 -281 -41 0
48 171 58 0
-398 3 145 0
-27 -347 -15 0
145 238 -17 0
-238 -308 -368 0
-30 59 206 0
92 151 -85 0
-391 -300 170 0
-368 -273 -219 0
142 -121 270 0
24 -49 281 0
-363 -123 -166 0
-218 -8 -34 0
307 -397 90 0
131 13 -194 0
90 -371 245 0
-372 -101 -129 0
259 375 185 0
264 -119 278 0
288 -322 14 0
-269 -209 112 0
-288 257 339 0
-285 209 -153 0
201 -33 273 0
186 -7 80 0
-278 -353 -346 0
268 294 343 0
-326 -345 -196 0
229 -350 319 0
155 -158 41 0
-48 -314 331 0
-285 35 -3 0
27 73 122 0
17 -129 42 0
-346 308 -108 0
-177 -59 149 0
-284 -151 -375 0
-110 224 -170 0
273 387 229 0
51 121 8 0
-24 201 294 0
194 -147 363 0
34 -125 205 0
8 -307 -405 0
12 263 -13 0
-104 371 -110 0
220 372 -300 0
-404 -158 -375 0
119 -46 -98 0
-191 404 62 0
-35 98 -354 0
-339 -390 -135 0
-174 285 -310 0
-273 62 -256 0
6 -80 329 0
278 301 95 0
191 -268 -60 0
-255 27 345 0
274 350 -282 0
-374 -280 -155 0
367 -266 314 0
-35 -135 223 0
-73 -393 -374 0
-89 263 129 0
-357 108 -392 0
378 -52 -149 0
114 375 360 0
369 -224 263 0
-387 78 -295 0
-51 29 -379 0
-53 -354 -201 0
-194 268 -137 0
125 349 259 0
-384 73 405 0
-12 40 6 0
382 104 -376 0
256 -392 300 0
-108 -382 -241 0
345 -256 -57 0
-338 191 -352 0
390 389 35 0
390 315 350 0
-298 310 -369 0
-341 138 256 0
216 -329 -226 0
-95 -4 -324 0
67 -191 -91 0
-172 -27 -262 0
-274 1 365 0
280 -99 -225 0
-116 -226 266 0
220 -223 -219 0
-322 374 -87 0
340 -102 89 0
357 -167 389 0
389 -79 52 0
217 -114 -57 0
389 -369 -93 0
-28 295 67 0
253 -352 -29 0
53 -298 86 0
220 137 -406 0
-322 -259 -23 0
6 384 370 0
-59 -117 -40 0
-182 -380 -370 0
-20 -147 117 0
-242 241 228 0
-36 -345 160 0
57 338 294 0
62 -390 90 0
-350 -47 152 0
25 246 369 0
34 140 341 0
157 -216 -333 0
-47 -176 4 0
93 -332 91 0
172 -117 400 0
241 184 -1 0
99 173 314 0
-237 -391 116 0
392 -261 219 0
87 -352 -163 0
102 18 335 0
-304 184 167 0
79 187 -351 0
160 188 -217 0
93 -48 173 0
239 -261 28 0
401 -253 215 0
-240 -332 -86 0
-37 406 -351 0
290 23 192 0
-165 37 -364 0
-289 305 -290 0
240 380 65 0
185 147 176 0
-228 -231 -381 0
-22 -233 36 0
15 171 -57 0
-95 -62 363 0
192 222 -152 0
323 355 -246 0
22 -226 -34 0
248 333 -262 0
176 -202 65 0
-265 -366 -93 0
-226 -400 -181 0
-126 -241 37 0
190 -314 -38 0
391 232 235 0
-392 -148 309 0
352 -286 -262 0
399 -18 358 0
214 -195 304 0
304 -187 -162 0
-307 355 -188 0
197 48 399 0
-95 -239 338 0
-162 -329 -215 0
102 -3 240 0
-249 329 243 0
-102 -224 -177 0
-144 364 88 0
190 -305 -70 0
-240 284 45 0
138 -176 -211 0
-208 231 232 0
55 22 405 0
298 -171 45 0
210 -363 313 0
-40 124 -222 0
-383 -323 -70 0
-69 -22 -180 0
340 -248 -211 0
-113 202 167 0
405 234 265 0
-31 7 181 0
275 -37 146 0
-36 -212 38 0
335 -235 -149 0
-32 157 -309 0
271 404 286 0
232 -358 109 0
-293 -139 -214 0
-304 115 124 0
307 271 173 0
387 -197 195 0
-292 -139 -338 0
287 -249 -195 0
-224 251 292 0
249 -144 -337 0
190 224 -72 0
144 284 -67 0
-190 -132 138 0
-208 -189 -284 0
-138 -16 55 0
208 298 -229 0
118 -55 313 0
-40 -298 -385 0
-383 -313 361 0
40 -69 -67 0
340 383 309 0
209 69 167 0
361 -340 234 0
-229 -167 -31 0
-234 227 146 0
31 -12 -212 0
335 -146 227 0
131 212 -32 0
-335 175 404 0
-64 109 32 0
-72 -293 -404 0
141 115 -109 0
173 293 -385 0
-115 195 141 0
-173 288 -292 0
-246 -289 344 0
-110 47 164 0
246 -247 -312 0
110 406 204 0
-78 312 -328 0
-406 -29 83 0
328 -97 -71 0
29 -21 83 0
91 97 -269 0
-145 21 -180 0
-82 211 269 0
315 180 -386 0
-362 82 -235 0
39 135 -315 0
-275 235 -184 0
-154 -39 133 0
204 -136 184 0
111 134 154 0
-24 211 -204 0
-38 -111 373 0
286 -373 24 0
109 42 -373 0
344 244 -286 0
-123 -42 133 0
251 -244 -247 0
-183 123 -145 0
348 289 -251 0
183 -164 -45 0
28 333 213 0
-51 400 -198 0
-330 347 -333 0
51 380 353 0
252 394 -347 0
66 -243 -380 0
-114 -72 -252 0
230 52 -66 0
76 114 -107 0
-52 14 353 0
118 -128 107 0
115 -14 -207 0
-118 -254 11 0
207 -243 -18 0
154 -11 87 0
213 222 18 0
143 -87 -63 0
-213 311 -223 0
154 63 -331 0
225 9 223 0
291 331 394 0
382 -9 -11 0
368 -291 19 0
11 370 140 0
164 -84 -19 0
75 -140 379 0
84 -213 -72 0
198 -89 -75 0
26 -217 -85 0
170 -63 71 0
-365 -25 217 0
-388 -71 -296 0
25 -199 -248 0
77 296 -155 0
-279 199 -179 0
287 128 155 0
-66 -203 179 0
-128 -43 -121 0
203 -169 -279 0
287 43 403 0
119 -303 169 0
88 44 -403 0
303 70 361 0
-88 182 359 0
-70 -156 -186 0
-359 -127 -152 0
-16 186 -365 0
203 77 152 0
16 -122 -386 0
-202 -150 -203 0
133 386 -112 0
206 150 -65 0
-133 -188 183 0
-206 -2 166 0
-26 -183 302 0
2 166 -170 0
308 77 160 0
-189 -297 -283 0
-308 83 -258 0
297 -252 -54 0
103 -359 258 0
252 249 61 0
359 134 60 0
-249 341 -199 0
207 -60 83 0
-141 -341 -283 0
-207 116 -316 0
141 -316 74 0
150 77 -116 0
-74 399 120 0
-272 -150 372 0
19 -399 -162 0
193 272 -54 0
-327 -398 162 0
-96 -316 54 0
-221 398 303 0
-214 96 -50 0
159 61 -303 0
-86 50 46 0
-159 -221 371 0
-317 103 86 0
-324 -371 -402 0
317 -160 134 0
397 324 189 0
-388 75 126 0
-302 105 158 0
388 -323 -349 0
358 302 4 0
323 -271 -5 0
-4 -228 100 0
-106 295 5 0
228 -144 -143 0
-271 106 297 0
33 143 -377 0
153 -297 233 0
17 -26 377 0
-153 334 -205 0
-328 99 -17 0
237 53 -334 0
100 -99 130 0
-237 20 163 0
-130 381 -255 0
100 -39 -20 0
142 255 33 0
-100 126 319 0
279 196 -142 0
-356 -216 -319 0
-279 148 -376 0
-198 216 393 0
381 376 280 0
198 -80 -75 0
-280 -82 -105 0
-161 300 377 0
-306 -32 -49 0
-267 -300 322 0
-208 49 -347 0
-259 -322 -305 0
58 347 -258 0
266 259 -206 0
-58 92 197 0
206 250 -305 0
-92 278 168 0
-250 123 377 0
-5 -218 -278 0
-58 -274 -123 0
172 -50 218 0
81 58 44 0
-172 -321 -299 0
-90 56 -44 0
-179 -368 321 0
230 90 -145 0
168 368 -194 0
321 145 230 0
194 -299 -101 0
-142 -321 293 0
276 101 -267 0
-367 49 142 0
-276 -50 112 0
292 161 367 0
306 -112 -254 0
-260 110 -227 0
-394 -263 103 0
2 -8 -110 0
394 291 122 0
-257 -127 8 0
291 -284 -122 0
257 -127 177 0
325 284 229 0
-177 174 147 0
-229 81 -153 0
-147 -74 285 0
-270 153 137 0
-276 -285 -283 0
220 -396 -137 0
276 326 -260 0
205 -220 165 0
-326 158 178 0
325 -205 331 0
178 353 -158 0
294 -10 -331 0
-353 -327 264 0
-294 -46 -245 0
-402 327 -42 0
46 -270 186 0
383 33 42 0
-346 -186 -10 0
227 -1 -33 0
263 346 -156 0
-255 -221 -73 0
-360 -393 76 0
73 -130 -55 0
76 393 -60 0
265 130 -62 0
236 60 257 0
-159 -263 62 0
-282 -257 -107 0
-301 263 357 0
78 178 282 0
301 -395 -378 0
-337 -392 -78 0
374 378 -146 0
-320 392 277 0
-55 21 -374 0
-277 349 -378 0
120 -268 -21 0
-349 -344 242 0
379 268 -395 0
344 -174 -337 0
-379 -9 376 0
174 242 6 0
-376 135 265 0
-6 56 -354 0
-135 343 -360 0
367 354 -169 0
120 360 255 0
334 -367 360 0
-14 -389 -225 0
-15 -298 -212 0
389 -320 -138 0
-226 298 -238 0
138 391 282 0
226 41 171 0
342 -282 30 0
-219 -322 -41 0
-238 -342 108 0
330 264 322 0
391 -108 -315 0
-84 -330 67 0
397 315 324 0
-67 -8 365 0
-340 -185 -324 0
-365 264 389 0
262 340 -14 0
-57 -389 -15 0
-262 352 30 0
57 -8 -339 0
-13 -352 -6 0
339 -269 364 0
61 6 -245 0
131 -59 -364 0
-61 -320 -220 0
317 59 171 0
225 398 220 0
212 -97 -317 0
346 261 -354 0
69 343 -90 0
351 59 -261 0
-48 192 -69 0
242 -17 -351 0
-20 -192 308 0
-242 170 -290 0
20 34 -163 0
290 -363 182 0
163 372 184 0
-173 -182 -121 0
-184 27 79 0
-140 173 -201 0
-332 -79 319 0
-294 -371 140 0
332 -261 119 0
59 294 -335 0
261 27 -237 0
47 288 335 0
-24 237 157 0
101 -47 375 0
-157 319 96 0
3 117 -101 0
-24 -96 160 0
-401 -41 -117 0
-160 25 -13 0
401 307 354 0
90 -25 273 0
194 -239 -325 0
125 185 195 0
226 -129 239 0
-185 -12 -126 0
-226 -399 -104 0
-201 -233 126 0
273 165 399 0
300 233 232 0
51 -165 -336 0
272 -232 98 0
336 224 -65 0
-73 -272 -366 0
-345 148 65 0
366 108 -262 0
-190 -104 -148 0
108 -289 262 0
190 168 149 0
289 336 300 0
-168 -404 162 0
350 -336 355 0
-278 -192 -162 0
-355 314 -3 0
192 381 149 0
-201 3 -95 0
-404 -381 -15 0
106 -268 95 0
15 325 224 0
-268 -106 -195 0
-137 -396 -180 0
271 -260 266 0
-124 27 396 0
-271 266 -139 0
124 -387 223 0
-211 -329 139 0
387 -232 -191 0
-259 211 -244 0
-88 232 -89 0
275 -114 244 0
113 88 -89 0
-275 -149 -274 0
-384 -157 -113 0
-191 149 405 0
157 -137 -243 0
-405 -177 -256 0
-384 243 36 0
210 177 35 0
382 -45 -36 0
310 -70 -210 0
-210 45 -256 0
70 181 -259 0
29 -306 210 0
-181 -342 357 0
306 -7 369 0
-40 342 384 0
-52 7 180 0
-384 260 310 0
-131 -67 -99 0
227 -30 87 0
350 -229 67 0
-187 -1 30 0
229 -99 -299 0
187 -361 117 0
299 -189 -102 0
361 -309 116 0
141 189 -102 0
-390 385 309 0
-64 -141 370 0
16 -385 -390 0
68 64 -219 0
-216 -16 -288 0
-4 -68 -12 0
-216 -118 288 0
-385 -341 12 0
118 -86 132 0
-172 209 385 0
-251 -132 167 0
-209 23 -406 0
251 -86 -175 0
-23 253 287 0
72 175 23 0
-287 -337 -93 0
-326 -72 28 0
337 131 -341 0
-227 326 -217 0
373 -380 344 0
-134 -38 -290 0
-344 -355 18 0
134 386 -246 0
355 348 228 0
-290 318 -386 0
400 -348 43 0
-239 -318 -83 0
-43 91 392 0
83 -351 36 0
18 211 -91 0
351 333 -47 0
-362 215 -211 0
-188 -133 47 0
187 362 -275 0
133 -62 145 0
-277 275 400 0
-188 -109 -145 0
277 -176 -247 0
391 109 45 0
-71 215 247 0
-45 356 -239 0
228 71 -136 0
-204 -246 -356 0
-78 136 -37 0
352 -135 204 0
-373 78 -380 0
391 38 135 0
76 -329 -200 0
370 -363 -222 0
164 -364 -76 0
243 222 -323 0
-38 -164 28 0
-243 -248 -382 0
-28 -181 -330 0
382 307 -225 0
358 330 -313 0
225 -161 265 0
22 -254 313 0
-305 -379 161 0
22 154 254 0
-102 -230 379 0
171 -154 368 0
230 -353 -248 0
-368 -329 -72 0
353 -323 31 0
394 72 240 0
-31 89 22 0
-394 197 296 0
-89 -311 -102 0
309 143 -296 0
311 -214 -115 0
-143 304 -128 0
115 -400 -235 0
200 128 171 0
-370 -305 400 0
167 10 302 0
287 127 293 0
332 -302 109 0
312 292 -127 0
-66 -69 -332 0
383 362 -312 0
-32 119 66 0
-146 -362 63 0
-85 -119 -40 0
-55 388 -63 0
85 195 -156 0
-234 202 -388 0
-212 156 -365 0
-250 -202 -138 0
-31 365 361 0
65 292 250 0
-361 -188 -249 0
-65 -146 -77 0
-144 188 -248 0
77 121 -340 0
248 -122 115 0
-121 -404 -182 0
122 -40 -279 0
-44 182 -190 0
279 -112 284 0
-166 44 -340 0
112 -10 -249 0
-287 166 -404 0
-184 134 132 0
164 -221 -19 0
46 -269 -134 0
-39 19 -397 0
77 -312 -46 0
327 397 123 0
-316 -77 -235 0
316 -327 -406 0
83 316 204 0
-120 123 -316 0
-214 -83 -328 0
-406 120 -61 0
-328 214 218 0
61 180 283 0
311 -82 -218 0
-215 -283 -315 0
103 204 -311 0
-39 215 199 0
289 -103 372 0
402 -199 110 0
-312 -403 -372 0
-402 301 -111 0
286 403 193 0
-68 -301 183 0
-193 -235 -92 0
68 164 54 0
-132 286 92 0
221 29 -54 0
163 -84 -393 0
358 -52 64 0
-163 -80 19 0
-64 -148 11 0
-349 -84 80 0
-381 -380 148 0
349 11 94 0
328 -380 381 0
295 -94 -213 0
-140 26 -328 0
-213 175 -295 0
-26 51 -33 0
-39 -175 -107 0
82 33 223 0
-356 39 -114 0
-82 231 -52 0
356 -205 -63 0
-231 -75 144 0
126 -331 205 0
401 51 -144 0
291 -126 233 0
-401 -196 -198 0
-233 53 333 0
-100 18 196 0
347 -271 -53 0
100 11 -158 0
393 -114 271 0
-358 158 -9 0
292 -25 -230 0
258 197 296 0
-292 -274 70 0
-359 -258 267 0
274 -217 98 0
2 208 -267 0
49 -98 133 0
-208 152 124 0
-49 -203 56 0
170 -124 104 0
-169 -305 -56 0
254 -104 -206 0
305 310 183 0
-128 -168 -254 0
105 -310 -16 0
168 50 -128 0
-169 -105 -267 0
-50 2 -94 0
-386 267 266 0
-71 94 299 0
293 -266 133 0
32 -299 -88 0
-293 81 -186 0
5 -203 -32 0
-179 377 -81 0
-403 -5 179 0
-203 230 -377 0
-179 155 -197 0
383 -54 260 0
291 270 162 0
174 -383 -359 0
-270 297 -165 0
178 -258 -174 0
-81 -399 165 0
-127 -178 -86 0
-253 -159 81 0
127 -402 207 0
-341 253 396 0
308 402 -1 0
-396 -103 297 0
60 -74 1 0
-341 103 245 0
-96 74 264 0
-399 136 -245 0
-272 -264 -283 0
-303 10 -136 0
283 -317 2 0
-113 -10 162 0
60 -2 139 0
113 324 -325 0
-139 -318 150 0
-189 -193 325 0
318 -234 -272 0
193 156 -303 0
116 -260 234 0
-156 252 -291 0
-343 319 265 0
169 -107 -142 0
-221 20 -265 0
-169 -99 -334 0
-216 -159 221 0
334 247 228 0
-55 159 -5 0
-236 -279 -247 0
55 -9 334 0
236 105 -200 0
319 9 -151 0
143 -178 200 0
-146 151 297 0
228 378 178 0
20 357 146 0
-378 -17 -242 0
-198 -357 -111 0
302 242 320 0
237 111 125 0
-56 302 -320 0
-125 236 -106 0
56 -4 395 0
-236 120 -388 0
-395 377 337 0
-395 -106 -120 0
-76 105 -337 0
395 343 -323 0
107 76 377 0
-366 -13 250 0
-84 -276 97 0
161 13 -320 0
-97 347 -348 0
281 320 322 0
348 -171 321 0
321 -281 398 0
194 171 15 0
-398 44 -238 0
218 238 -15 0
238 44 30 0
-58 85 -238 0
300 -30 391 0
219 -276 -85 0
-391 -58 -270 0
-281 -172 -219 0
-206 166 270 0
8 -112 281 0
-166 -367 397 0
-92 -131 -8 0
-397 -245 161 0
129 131 -172 0
-185 -367 245 0
-264 -278 -129 0
-14 321 185 0
269 264 321 0
14 -58 366 0
-269 49 84 0
-276 -288 -201 0
7 209 -137 0
346 177 201 0
-137 -343 -7 0
196 -346 227 0
153 343 -319 0
227 -41 -196 0
48 319 -122 0
33 41 3 0
284 -27 -48 0
-17 -3 -276 0
-308 394 27 0
-327 59 17 0
46 151 308 0
-257 170 -59 0
-273 394 -151 0
326 -170 -121 0
273 24 -205 0
-363 121 -327 0
-263 -24 -34 0
363 353 307 0
13 346 34 0
-42 -371 -307 0
-372 -13 -220 0
375 147 371 0
-119 -186 372 0
-375 288 285 0
119 -209 -331 0
404 -130 339 0
393 98 -285 0
-339 273 -378 0
80 285 -257 0
-278 -273 -360 0
268 -80 -360 0
379 -345 278 0
-350 -268 174 0
345 21 155 0
-314 350 -349 0
-301 35 -155 0
282 314 73 0
-35 255 -129 0
60 -108 -73 0
129 -360 149 0
-277 -375 108 0
224 -149 21 0
387 375 -257 0
-224 51 -130 0
-367 -387 201 0
-51 194 376 0
344 -125 -201 0
-405 -73 -194 0
125 -78 12 0
-268 405 -104 0
-300 -277 -12 0
104 -404 374 0
300 -98 344 0
342 -382 -191 0
-35 -256 339 0
342 191 -390 0
-317 -310 35 0
390 -256 225 0
329 -364 310 0
256 95 -6 0
191 -329 -365 0
27 -95 282 0
274 -41 -191 0
-27 108 -280 0
-274 -266 59 0
-315 280 223 0
-317 266 -374 0
262 -89 -223 0
-357 374 -212 0
89 -138 -52 0
357 114 339 0
52 369 282 0
-295 -364 -114 0
324 29 -369 0
-41 295 -53 0
-137 -29 61 0
53 259 -330 0
137 -384 61 0
40 -259 -330 0
382 384 -340 0
256 -40 -212 0
-290 -241 -370 0
-69 117 345 0
-290 241 -338 0
261 390 -345 0
338 -335 350 0
-390 -369 -25 0
261 -350 -341 0
369 216 -192 0
-4 341 -401 0
-79 -216 -91 0
-172 4 -294 0
237 91 1 0
-99 182 172 0
-116 -1 -90 0
354 -219 99 0
-87 -96 116 0
-102 219 -140 0
-157 87 -167 0
102 101 -79 0
-69 167 217 0
79 117 -93 0
-96 -217 -28 0
93 354 253 0
163 86 28 0
-406 -253 242 0
-23 -86 20 0
370 406 101 0
23 -117 -79 0
-239 -380 37 0
-290 -147 -185 0
380 228 168 0
-336 -36 147 0
-190 -228 57 0
62 36 -272 0
-57 -239 152 0
289 -62 246 0
34 148 -152 0
-246 -333 -336 0
-176 -34 168 0
93 333 366 0
176 400 -336 0
241 233 -93 0
381 314 -400 0
-232 -391 -241 0
325 -314 392 0
-352 -106 391 0
18 -392 165 0
3 352 -304 0
-18 187 -336 0
126 188 304 0
-187 -48 -192 0
-188 -272 239 0
215 325 48 0
195 -240 -239 0
-15 -215 -37 0
240 -106 290 0
36 -364 329 0
-102 -384 305 0
180 240 364 0
244 176 -305 0
-231 -210 -240 0
-22 -176 -181 0
-306 171 231 0
363 22 -260 0
-243 -171 222 0
-384 323 -363 0
-88 22 -222 0
244 248 -323 0
-210 -202 -22 0
-265 -248 -260 0
-181 202 -387 0
265 149 37 0
-396 181 -38 0
-37 177 235 0
38 309 -157 0
-286 -210 -235 0
358 -309 -7 0
286 342 214 0
-358 304 -306 0
-307 -275 -214 0
-304 -396 197 0
338 307 342 0
-329 -197 113 0
-338 -181 102 0
c 
p cnf 406 1624 
c 
