c File: sample.cnf 
c 
c Curresponding author: KeumBae Cho (kbcho98@snu.ac.kr) 
c 
c 
c This CNF file was generated by the dual toroidal binomial tree and modular random capsuling method
c 
c 
c solution1 -1 2 -3 4 5 6 7 8 -9 -10 11 12 13 14 15 -16 17 -18 19 20 21 22 -23 -24 -25 -26 27 -28 29 -30 -31 32 33 -34 35 36 37 38 -39 40 41 -42 43 44 45 46 47 48 49 50 51 52 -53 54 -55 56 -57 58 59 -60 61 62 -63 64 -65 66 67 -68 -69 70 -71 72 -73 74 -75 -76 77 78 -79 -80 81 -82 83 84 -85 86 -87 88 -89 -90 91 92 -93 94 95 96 -97 98 99 100 -101 102 103 -104 -105 -106 107 108 -109 -110 111 112 -113 -114 115 116 117 -118 -119 120 121 122 123 124 125 -126 127 128 129 130 131 -132 -133 -134 -135 -136 -137 -138 -139 -140 -141 142 -143 -144 145 146 -147 -148 149 150 -151 152 153 154 155 156 157 158 -159 160 161 162 -163 -164 165 166 -167 -168 169 -170 171 -172 173 -174 -175 -176 177 -178 -179 -180 -181 -182 -183 -184 -185 -186 -187 188 -189 -190 191 192 193 194 195 -196 197 198 -199 200 -201 202 203 204 -205 -206 -207 208 209 -210 -211 212 213 -214 -215 -216 217 218 219 220 -221 222 223 224 225 -226 -227 -228 -229 230 -231 232 233 234 235 236 -237 238 -239 -240 -241 -242 243 244 -245 -246 -247 248 -249 250 -251 -252 253 -254 255 -256 -257 -258 -259 -260 -261 262 -263 -264 -265 266 -267 -268 269 270 271 272 273 274 275 -276 277 278 -279 280 281 282 -283 284 285 -286 287 -288 -289 -290 -291 292 -293 -294 295 296 297 298 -299 300 301 302 303 304 305 306 307 -308 -309 -310 -311 -312 313 -314 315 -316 317 318 319 -320 321 322 -323 -324 -325 326 -327 328 329 -330 -331 -332 -333 -334 335 -336 337 338 339 -340 341 342 -343 344 -345 346 -347 -348 -349 -350 351 352 -353 -354 355 356 -357 358 -359 -360 -361 -362 363 -364 -365 366 -367 -368 369 370 -371 -372 373 374 -375 -376 -377 378 -379 380 -381 382 383 384 385 -386 -387 388 389 390 391 392 -393 -394 395 -396 -397 398 -399 400 401 402 403 404 405 -406 0
c 
c -compliments of solution1-
c solution2 1 -2 3 -4 -5 -6 -7 -8 9 10 -11 -12 -13 -14 -15 16 -17 18 -19 -20 -21 -22 23 24 25 26 -27 28 -29 30 31 -32 -33 34 -35 -36 -37 -38 39 -40 -41 42 -43 -44 -45 -46 -47 -48 -49 -50 -51 -52 53 -54 55 -56 57 -58 -59 60 -61 -62 63 -64 65 -66 -67 68 69 -70 71 -72 73 -74 75 76 -77 -78 79 80 -81 82 -83 -84 85 -86 87 -88 89 90 -91 -92 93 -94 -95 -96 97 -98 -99 -100 101 -102 -103 104 105 106 -107 -108 109 110 -111 -112 113 114 -115 -116 -117 118 119 -120 -121 -122 -123 -124 -125 126 -127 -128 -129 -130 -131 132 133 134 135 136 137 138 139 140 141 -142 143 144 -145 -146 147 148 -149 -150 151 -152 -153 -154 -155 -156 -157 -158 159 -160 -161 -162 163 164 -165 -166 167 168 -169 170 -171 172 -173 174 175 176 -177 178 179 180 181 182 183 184 185 186 187 -188 189 190 -191 -192 -193 -194 -195 196 -197 -198 199 -200 201 -202 -203 -204 205 206 207 -208 -209 210 211 -212 -213 214 215 216 -217 -218 -219 -220 221 -222 -223 -224 -225 226 227 228 229 -230 231 -232 -233 -234 -235 -236 237 -238 239 240 241 242 -243 -244 245 246 247 -248 249 -250 251 252 -253 254 -255 256 257 258 259 260 261 -262 263 264 265 -266 267 268 -269 -270 -271 -272 -273 -274 -275 276 -277 -278 279 -280 -281 -282 283 -284 -285 286 -287 288 289 290 291 -292 293 294 -295 -296 -297 -298 299 -300 -301 -302 -303 -304 -305 -306 -307 308 309 310 311 312 -313 314 -315 316 -317 -318 -319 320 -321 -322 323 324 325 -326 327 -328 -329 330 331 332 333 334 -335 336 -337 -338 -339 340 -341 -342 343 -344 345 -346 347 348 349 350 -351 -352 353 354 -355 -356 357 -358 359 360 361 362 -363 364 365 -366 367 368 -369 -370 371 372 -373 -374 375 376 377 -378 379 -380 381 -382 -383 -384 -385 386 387 -388 -389 -390 -391 -392 393 394 -395 396 397 -398 399 -400 -401 -402 -403 -404 -405 406 0
c 
171 -178 -304 0
-47 152 56 0
181 -199 363 0
-207 338 289 0
301 -231 237 0
70 -347 -52 0
-97 -393 283 0
156 -355 384 0
366 342 -51 0
369 -278 -350 0
29 174 -164 0
168 117 -140 0
374 -102 40 0
102 290 -308 0
234 50 -88 0
222 -86 37 0
-75 276 198 0
-371 397 177 0
-314 192 323 0
-6 22 -31 0
-1 350 315 0
-373 -181 -399 0
-312 -402 -258 0
-136 194 -208 0
148 -359 404 0
91 391 144 0
11 -336 371 0
26 339 197 0
107 -195 -371 0
-339 -185 -110 0
289 219 304 0
-56 236 94 0
-384 -181 287 0
-359 58 207 0
-310 -237 -284 0
347 296 -73 0
272 -307 -283 0
27 -384 7 0
19 51 -14 0
-71 154 350 0
-174 -163 -270 0
-119 -117 219 0
102 244 -285 0
-221 -330 -102 0
-392 -252 88 0
250 255 -222 0
5 -276 207 0
371 -113 -201 0
-69 -378 -323 0
-22 78 -90 0
-406 134 -350 0
181 366 193 0
402 -334 -346 0
202 -194 -279 0
279 38 -148 0
-391 81 -68 0
-279 338 -213 0
-63 68 -172 0
20 195 399 0
110 -376 220 0
127 -21 -289 0
98 378 -94 0
-296 384 -24 0
-137 359 390 0
284 71 162 0
395 73 -105 0
32 -169 307 0
2 -7 -364 0
-175 14 -66 0
111 71 -257 0
-396 132 270 0
166 -183 -219 0
90 285 -294 0
221 234 321 0
330 -361 392 0
124 -250 161 0
380 -204 -207 0
-361 113 -163 0
378 191 -100 0
191 -78 -148 0
-114 -54 -134 0
-366 -265 269 0
345 -172 346 0
279 -135 317 0
-345 124 -188 0
-134 -317 -151 0
74 79 213 0
172 -393 -133 0
133 -399 224 0
-220 -245 -325 0
-4 313 21 0
297 -394 -378 0
246 -16 296 0
243 -85 137 0
295 -71 -385 0
-395 238 107 0
169 -115 383 0
50 -132 364 0
-368 66 259 0
48 257 401 0
-132 185 83 0
-360 -166 -324 0
-47 -34 -90 0
-234 66 382 0
-330 -184 257 0
301 -124 306 0
37 204 -125 0
163 -18 142 0
-340 28 100 0
-191 -231 224 0
54 165 26 0
-104 -336 -269 0
-220 -26 -308 0
-320 336 -375 0
15 10 188 0
-299 -65 151 0
-79 372 281 0
393 64 21 0
-133 388 144 0
146 245 123 0
226 -228 4 0
-297 -93 335 0
-246 52 60 0
-57 -243 127 0
-138 385 -248 0
33 -107 74 0
115 275 -17 0
352 326 132 0
-319 -259 6 0
-401 -16 -259 0
81 118 -185 0
360 204 46 0
-8 47 271 0
-276 -382 -386 0
-397 -257 -92 0
92 -301 -260 0
145 125 -72 0
54 318 18 0
-119 80 -28 0
188 231 -345 0
-80 320 302 0
169 -333 -188 0
-395 220 44 0
320 287 -228 0
-45 -10 217 0
-75 299 35 0
352 -372 -150 0
-64 122 -126 0
-144 -13 59 0
-357 -353 -146 0
-300 -176 -226 0
41 93 -365 0
211 152 -60 0
-349 272 57 0
-187 221 248 0
-74 -39 305 0
-208 -227 17 0
-246 -229 -326 0
319 -264 -166 0
300 259 -354 0
183 -118 -82 0
-204 -210 -294 0
68 8 -89 0
-211 11 276 0
92 -154 398 0
-92 209 -3 0
72 -225 -205 0
-54 277 270 0
225 212 -67 0
-186 -270 157 0
-2 -42 -320 0
322 262 333 0
121 -49 395 0
304 160 -287 0
243 39 45 0
-35 43 -25 0
150 -381 -202 0
346 165 -122 0
-229 13 -306 0
357 -311 -30 0
-293 -122 300 0
-41 100 -69 0
-142 58 -211 0
200 -272 173 0
-130 -221 95 0
302 -241 -305 0
-210 208 263 0
229 235 153 0
335 166 -128 0
-9 354 -263 0
255 180 -183 0
294 392 38 0
-31 -68 -129 0
-11 400 -109 0
-200 154 -311 0
3 383 -377 0
200 190 -106 0
377 370 62 0
93 67 -85 0
186 -205 -143 0
2 -155 -332 0
36 -262 -283 0
-242 -99 49 0
203 -304 149 0
-331 364 -39 0
-43 155 402 0
202 -316 245 0
-346 49 -1 0
-254 -120 306 0
-199 311 -362 0
369 122 -103 0
-23 -100 -106 0
-53 142 -218 0
-200 -310 351 0
-105 130 241 0
266 232 241 0
-141 -263 -117 0
284 389 -153 0
128 -131 203 0
9 32 295 0
-160 35 -180 0
-139 -38 -247 0
129 149 -94 0
-334 273 -400 0
109 94 48 0
334 150 319 0
268 -190 -325 0
-372 -53 -62 0
-299 -93 -292 0
404 -237 205 0
333 155 -362 0
-379 283 162 0
99 -214 -400 0
-149 -97 40 0
157 -364 -22 0
-155 -196 -293 0
405 -245 -41 0
-24 1 -251 0
-18 120 -373 0
-249 362 8 0
-232 112 103 0
-60 20 23 0
218 161 -223 0
29 310 282 0
349 -55 -241 0
-232 -226 -79 0
61 117 196 0
45 -389 13 0
-179 379 131 0
-141 -32 -291 0
160 230 327 0
-348 139 108 0
-327 -389 236 0
307 348 298 0
156 -109 76 0
103 -319 356 0
-135 -268 -277 0
53 -258 374 0
-62 292 273 0
-239 158 237 0
390 -108 -333 0
-118 -312 379 0
324 -182 400 0
223 97 198 0
-303 -126 22 0
293 -214 -138 0
-347 -401 41 0
14 15 251 0
-305 -387 373 0
-288 -343 249 0
56 -329 232 0
-387 328 60 0
-78 223 -386 0
-29 -264 358 0
-168 394 -349 0
226 -323 125 0
-151 206 -196 0
218 342 -13 0
-379 348 -137 0
99 291 341 0
-348 322 -233 0
-80 344 -99 0
-222 274 389 0
-298 213 67 0
-30 -76 -355 0
-340 77 -356 0
277 -262 253 0
-267 258 280 0
-197 33 62 0
-254 -158 -286 0
108 344 -298 0
4 118 -261 0
-167 -324 -269 0
275 -367 -198 0
98 303 -356 0
380 285 214 0
-123 401 -249 0
388 -190 -15 0
-351 305 64 0
129 288 -215 0
-70 382 329 0
-184 387 -167 0
-266 78 -376 0
-358 -227 116 0
-238 -394 -186 0
5 -125 -206 0
-206 -240 -194 0
-256 -342 329 0
194 158 65 0
256 -406 -331 0
233 357 -265 0
-344 313 -242 0
140 -189 222 0
131 -213 -327 0
-339 355 46 0
225 19 340 0
262 -146 209 0
112 -280 -28 0
-370 197 358 0
405 286 -179 0
-343 298 73 0
-314 261 -180 0
269 -341 -9 0
363 -176 367 0
-321 356 391 0
-189 -380 83 0
-239 -193 123 0
190 -10 217 0
-101 261 351 0
-82 -129 -164 0
-353 139 70 0
315 184 -187 0
-297 266 -136 0
244 195 -116 0
238 290 -170 0
171 337 -5 0
-290 258 -291 0
51 37 -171 0
-65 164 -377 0
197 120 406 0
-357 235 -40 0
271 242 177 0
-140 -216 -363 0
152 327 -114 0
-286 339 359 0
233 -308 -225 0
146 393 318 0
-89 -112 -140 0
-192 370 -267 0
156 121 -405 0
178 -73 -201 0
70 -182 180 0
-366 -113 341 0
292 -363 91 0
321 -87 -234 0
-83 -31 274 0
-315 193 111 0
10 -159 -399 0
-261 -301 -215 0
253 369 82 0
75 -139 173 0
-216 187 338 0
297 336 -159 0
-195 -34 -136 0
-336 -375 -219 0
59 136 -201 0
-107 -258 -63 0
-37 72 296 0
-164 -272 403 0
-197 -147 -90 0
77 40 -5 0
17 58 -177 0
363 69 91 0
-152 255 84 0
-287 280 -359 0
193 308 385 0
-393 27 163 0
-119 140 61 0
153 192 -244 0
-309 81 -156 0
278 -178 334 0
154 145 -70 0
-19 177 366 0
236 -91 95 0
328 234 406 0
31 -381 202 0
315 310 96 0
-185 399 303 0
86 301 -38 0
-369 -55 27 0
252 36 -75 0
-338 398 -330 0
294 -252 -3 0
330 96 -183 0
7 24 219 0
201 281 111 0
107 -354 -127 0
-148 88 -296 0
272 -338 -365 0
44 90 -265 0
5 -162 -256 0
-42 -58 98 0
-69 -143 -380 0
-87 -105 -255 0
175 287 -251 0
-376 403 -193 0
-163 172 43 0
-135 -252 119 0
244 -23 -32 0
-81 161 -368 0
326 -334 114 0
-154 130 321 0
337 19 -191 0
248 -361 -236 0
-406 -260 361 0
-202 -240 2 0
-147 -310 396 0
-63 230 185 0
38 -20 84 0
390 -316 -27 0
20 116 34 0
-390 212 -394 0
-57 -294 340 0
12 -85 183 0
-24 250 184 0
-101 -133 -111 0
127 -110 -37 0
-134 -76 148 0
-104 338 -165 0
265 306 -174 0
-309 162 16 0
48 -396 -98 0
380 -247 -224 0
142 105 115 0
-313 -175 -288 0
-325 -175 376 0
-124 -172 -25 0
135 -104 -332 0
32 -83 -367 0
238 -161 128 0
282 -74 -114 0
-324 -321 -170 0
-383 191 12 0
361 192 224 0
-361 317 368 0
-178 66 -2 0
-360 -295 -396 0
50 -268 63 0
295 -271 171 0
-50 -345 47 0
-34 -275 -97 0
-168 -375 394 0
-81 -340 342 0
85 -290 127 0
-184 -231 397 0
133 52 318 0
29 119 37 0
33 134 86 0
-314 138 165 0
-306 352 -26 0
11 -145 -16 0
373 -48 123 0
224 -6 -1 0
6 -260 -142 0
198 308 313 0
-144 335 325 0
404 -281 124 0
-65 -397 104 0
83 374 228 0
208 21 -238 0
-15 74 -312 0
-16 324 355 0
-199 383 -388 0
278 46 -224 0
-368 50 -52 0
-386 -66 -289 0
52 -59 -323 0
-210 386 194 0
304 271 -302 0
345 384 277 0
-44 -174 275 0
375 22 209 0
-181 205 81 0
-365 391 -127 0
-152 -397 -276 0
222 -75 -318 0
-283 -119 227 0
339 -39 -33 0
-237 -138 176 0
-352 117 -211 0
-217 402 145 0
-371 169 -123 0
6 -398 -371 0
-126 260 102 0
-308 51 89 0
-335 -181 -246 0
82 -148 281 0
65 300 -207 0
102 -228 264 0
56 -349 -21 0
187 88 15 0
-228 -350 16 0
-352 388 -350 0
-353 -46 -347 0
384 42 352 0
-71 353 322 0
270 -121 59 0
210 -109 -279 0
285 302 31 0
-277 -359 -30 0
14 44 -335 0
160 -113 -209 0
-205 311 346 0
7 383 365 0
152 -212 307 0
-110 173 75 0
-227 -207 210 0
39 219 392 0
-134 -176 -95 0
-68 165 211 0
217 229 392 0
-169 -73 -69 0
-279 398 381 0
-263 250 126 0
-89 195 293 0
157 246 366 0
284 -82 -58 0
-25 -300 -221 0
-243 -264 -289 0
302 349 78 0
-187 378 -255 0
228 235 94 0
-90 53 255 0
-235 -364 284 0
204 -42 316 0
-322 -172 -199 0
121 254 169 0
109 378 36 0
-31 331 -330 0
30 203 317 0
-132 141 335 0
191 -160 266 0
-311 85 100 0
269 -383 -106 0
242 212 213 0
-137 -173 370 0
-149 21 -210 0
124 402 -392 0
-203 95 66 0
-165 295 234 0
54 105 -229 0
220 -247 69 0
-369 -71 -381 0
166 263 273 0
-293 332 296 0
-257 351 -157 0
106 58 -399 0
395 25 -143 0
-35 -345 243 0
-302 49 -163 0
299 35 -26 0
-49 -360 -24 0
-53 55 -133 0
-79 -231 -284 0
188 179 -316 0
301 -196 199 0
-254 18 -79 0
-36 -372 243 0
-185 -331 -405 0
40 107 -203 0
-230 -141 -259 0
-336 45 -266 0
-48 385 -85 0
404 106 -18 0
-112 -242 -246 0
-370 282 -132 0
-257 325 149 0
-141 -245 -402 0
-161 203 4 0
-295 150 -151 0
362 -28 -105 0
247 20 297 0
47 369 214 0
108 -273 401 0
115 -332 -61 0
162 -393 -351 0
-106 -157 125 0
8 143 382 0
168 157 220 0
-8 188 -343 0
17 -299 137 0
24 341 -320 0
-55 151 -118 0
79 218 -259 0
-179 -80 126 0
223 196 -57 0
182 248 -18 0
-93 -312 372 0
-144 405 387 0
-276 307 -40 0
72 230 -156 0
92 -138 -45 0
-273 48 -10 0
-404 204 328 0
386 112 92 0
-282 -299 -239 0
-325 -390 319 0
141 146 -264 0
135 161 8 0
-150 54 14 0
-372 -362 -236 0
-20 103 326 0
-214 -226 347 0
-323 64 -108 0
-56 61 -60 0
-162 74 374 0
56 208 -98 0
-215 11 -374 0
225 -168 -344 0
-267 343 -333 0
166 -137 30 0
388 -341 287 0
376 -183 -151 0
-218 -227 -229 0
-68 -253 -126 0
-254 270 -223 0
150 -64 -182 0
312 -357 -206 0
186 -211 -387 0
122 -307 77 0
156 -322 45 0
138 305 67 0
-274 -320 273 0
-328 -80 -294 0
240 -386 300 0
272 329 239 0
390 167 13 0
-354 264 285 0
154 249 -135 0
41 4 -14 0
395 -33 236 0
-167 -3 -103 0
-347 -382 -221 0
35 275 323 0
382 265 2 0
313 -186 -275 0
-46 128 98 0
215 -241 217 0
-209 344 202 0
-164 267 304 0
-263 -30 343 0
-388 -331 153 0
67 -376 189 0
337 227 200 0
-391 -39 253 0
100 131 254 0
64 9 200 0
206 -189 346 0
130 101 -186 0
-179 38 -77 0
353 322 -180 0
244 -67 -311 0
-158 274 129 0
262 80 19 0
-240 170 122 0
-329 400 -314 0
-167 306 239 0
-176 -377 -285 0
142 136 -249 0
-28 -4 43 0
33 49 -358 0
167 -9 315 0
358 -318 -245 0
-216 232 -315 0
-241 -235 -265 0
-310 -313 274 0
131 201 46 0
-182 -1 -217 0
216 94 209 0
164 -159 32 0
-343 -111 -93 0
51 -205 331 0
120 215 -189 0
-337 -34 62 0
391 155 267 0
-89 389 -131 0
-9 159 218 0
155 189 -114 0
-173 -190 -101 0
179 -139 120 0
-353 99 87 0
292 -23 -244 0
158 -364 113 0
-19 149 271 0
-170 160 286 0
121 -334 314 0
103 -239 291 0
-283 176 253 0
377 -136 117 0
28 233 -362 0
-377 -403 400 0
-233 -381 -291 0
373 -27 318 0
-147 -226 216 0
235 -379 -153 0
95 -274 319 0
-280 -201 -109 0
17 182 -293 0
22 -216 -91 0
61 159 29 0
-327 111 -86 0
-251 -51 72 0
-333 -215 -36 0
-97 385 34 0
63 -268 -267 0
89 398 -53 0
-77 -196 -159 0
-237 -309 114 0
-177 223 173 0
-120 -379 59 0
-349 -87 375 0
-292 -60 303 0
-96 232 -113 0
-271 -249 84 0
41 -286 -278 0
-55 13 -121 0
292 -291 -328 0
-348 -253 145 0
-84 -348 328 0
281 -145 198 0
-326 277 403 0
248 381 -118 0
27 -324 251 0
358 44 147 0
354 389 153 0
-95 -214 230 0
-7 280 -394 0
-252 356 -17 0
91 -337 78 0
-316 298 -61 0
86 108 147 0
-368 99 -72 0
36 305 256 0
15 -385 403 0
401 -43 -63 0
-87 -398 125 0
77 260 329 0
-387 309 -42 0
177 23 -206 0
-288 -59 130 0
-375 365 62 0
-303 88 158 0
303 96 3 0
-84 342 -240 0
278 143 -76 0
-258 55 96 0
-143 -317 266 0
380 -96 -170 0
104 84 298 0
-268 -281 129 0
326 233 247 0
-286 192 -248 0
-251 309 262 0
-261 -76 -44 0
269 -354 367 0
5 -230 128 0
7 110 123 0
252 280 115 0
356 337 57 0
-174 316 -367 0
70 25 -147 0
213 368 12 0
-256 -12 355 0
-396 -403 -190 0
197 43 360 0
-101 -256 87 0
222 -260 -282 0
42 212 -340 0
-116 238 -23 0
-130 -178 116 0
-250 194 -365 0
-175 -184 -88 0
351 288 -3 0
344 -332 240 0
-140 199 -288 0
-289 332 -180 0
317 231 -261 0
170 52 -406 0
-104 -290 97 0
268 -82 355 0
-247 -342 -65 0
-242 -192 278 0
341 -29 -309 0
-168 195 76 0
-367 -374 193 0
405 -290 -128 0
297 -50 -110 0
-115 -10 86 0
-198 -57 321 0
-187 -397 174 0
314 -139 -25 0
6 -12 83 0
1 370 12 0
373 396 363 0
312 339 -360 0
208 -327 101 0
-404 282 -357 0
-212 171 -144 0
-11 146 116 0
178 112 -26 0
250 -73 -171 0
47 225 175 0
171 199 393 0
-47 -289 -91 0
-199 258 231 0
52 308 289 0
97 -231 336 0
-52 355 -37 0
-315 -97 -342 0
278 -355 -70 0
342 -29 164 0
399 -278 -168 0
-374 -363 29 0
-290 168 -197 0
374 -50 -234 0
-152 86 290 0
50 178 -198 0
-86 -397 140 0
314 -301 198 0
397 6 136 0
359 1 -314 0
-6 373 -369 0
75 312 -1 0
208 -177 -373 0
-404 -312 -192 0
-144 -208 -156 0
-366 -11 404 0
144 -26 -338 0
-171 -40 11 0
47 31 26 0
334 -371 -304 0
119 56 -339 0
304 -272 181 0
90 -56 -207 0
237 -19 -181 0
207 -347 -296 0
283 -5 -237 0
384 330 347 0
252 -283 -51 0
201 -384 -350 0
51 174 163 0
350 -193 117 0
-102 -107 -174 0
-117 102 -154 0
-219 -88 102 0
222 -255 -102 0
-244 276 88 0
-222 -371 -58 0
69 -276 323 0
371 -81 22 0
-323 310 350 0
-27 -22 -181 0
-350 -402 -38 0
-202 181 194 0
148 402 -287 0
391 185 -194 0
406 -148 371 0
-236 339 -391 0
-195 -279 -32 0
68 -110 361 0
24 289 195 0
110 148 94 0
361 -289 -384 0
-94 -359 -321 0
-284 -127 384 0
359 -2 -73 0
175 284 -307 0
73 -98 7 0
-14 307 -380 0
-71 135 -7 0
-270 14 -338 0
71 219 105 0
-20 270 -285 0
-221 -390 -219 0
285 -191 -392 0
221 -161 250 0
396 392 207 0
63 -250 -113 0
-207 -378 294 0
265 113 78 0
378 134 114 0
-78 366 183 0
-346 172 -134 0
-111 -366 -279 0
346 279 -162 0
376 -68 279 0
-213 16 -345 0
-142 -317 -172 0
399 213 -313 0
134 172 220 0
-21 -399 34 0
104 378 -220 0
-165 -296 21 0
325 -137 -378 0
296 184 71 0
395 133 137 0
-37 -169 -71 0
-364 -66 -395 0
-66 -224 169 0
394 364 -257 0
132 66 -74 0
324 257 166 0
-132 90 -124 0
234 -306 -166 0
-383 -90 330 0
-224 124 -234 0
-204 340 -330 0
-163 -124 85 0
-100 -83 204 0
-48 163 191 0
-295 -54 100 0
-191 -50 269 0
345 54 368 0
317 -238 -269 0
-81 -26 -188 0
-151 336 -127 0
-275 188 79 0
151 -393 386 0
133 -271 -79 0
393 -245 375 0
-4 -133 138 0
-352 245 297 0
246 4 308 0
260 243 -297 0
-145 -246 -385 0
-21 -243 107 0
385 -115 -388 0
-123 -132 -107 0
115 259 228 0
401 345 132 0
185 -52 -259 0
-335 -360 -401 0
-185 119 -47 0
360 382 -318 0
257 -6 47 0
301 -46 -382 0
-257 -125 -281 0
-18 -301 -33 0
-15 125 28 0
65 18 -231 0
26 397 -28 0
16 231 -336 0
-80 -217 -220 0
349 -188 -320 0
220 -398 10 0
320 -299 365 0
-10 -352 372 0
64 299 39 0
144 -372 -59 0
146 353 -64 0
226 -144 264 0
-146 -93 -209 0
-152 60 -226 0
210 -57 93 0
-248 -60 -44 0
74 57 75 0
-17 89 248 0
326 -74 211 0
-319 17 205 0
-326 -169 -259 0
319 82 118 0
228 259 204 0
-118 -302 -8 0
126 -204 -276 0
8 -92 176 0
92 276 -277 0
187 92 -72 0
-300 54 -92 0
80 72 227 0
188 -54 246 0
225 210 320 0
-160 -333 -270 0
-395 -335 -320 0
25 333 287 0
-45 395 293 0
-322 35 -287 0
45 -150 31 0
-35 122 -173 0
42 150 -13 0
-383 -357 -122 0
-300 311 13 0
41 69 357 0
211 -58 300 0
-157 -41 272 0
381 221 -211 0
-272 263 305 0
-221 -208 -243 0
-305 109 -229 0
-166 -121 208 0
229 -354 -165 0
229 166 183 0
-392 354 -294 0
-212 68 -183 0
294 11 30 0
-154 -68 -95 0
-302 -3 -11 0
154 -255 -225 0
3 -235 270 0
-67 141 200 0
-203 -186 377 0
-35 67 -2 0
186 262 -273 0
-49 2 105 0
304 -262 -49 0
39 -149 49 0
-304 43 247 0
316 -39 -202 0
346 -43 -36 0
242 -306 202 0
106 -311 -346 0
306 -122 -203 0
-284 311 100 0
85 -142 122 0
-100 -295 200 0
-130 142 -369 0
-266 -241 -200 0
254 263 130 0
241 -351 153 0
-128 332 -263 0
143 -9 -153 0
128 180 53 0
9 199 38 0
-180 106 -129 0
400 -38 -370 0
-200 129 331 0
-402 -400 -377 0
-161 190 94 0
334 62 372 0
-190 93 18 0
-205 196 -62 0
-93 -155 362 0
-283 -45 205 0
55 155 -99 0
-282 283 149 0
364 -405 99 0
155 -149 -8 0
-364 -61 245 0
-1 -155 -20 0
-245 -48 -120 0
-150 1 -362 0
-103 299 120 0
362 -23 79 0
-157 103 -218 0
141 23 -310 0
241 218 179 0
310 232 -40 0
214 -117 -241 0
389 -232 24 0
117 -230 -131 0
32 -108 -389 0
131 -160 -112 0
-32 -404 -139 0
325 -94 160 0
-162 139 -334 0
347 109 -327 0
348 319 323 0
268 -109 126 0
-53 -319 312 0
-390 -292 -268 0
-341 53 -237 0
333 292 386 0
-14 -379 237 0
-333 -273 -400 0
-97 -223 379 0
-22 400 387 0
-293 97 -307 0
22 -41 -236 0
293 343 -251 0
41 -373 168 0
251 -249 -218 0
-232 373 151 0
-60 249 -374 0
-223 137 232 0
264 29 60 0
223 349 135 0
-29 -226 138 0
196 -349 -56 0
13 226 -328 0
379 -156 -196 0
239 -13 -291 0
-379 327 182 0
291 -348 -103 0
-348 -98 -389 0
298 -388 -99 0
76 376 389 0
-77 -298 356 0
-76 -277 -33 0
-258 -356 215 0
277 -274 -62 0
258 158 -4 0
-108 -382 62 0
267 -158 -118 0
108 324 -322 0
118 198 -329 0
-303 30 -324 0
-198 -214 167 0
-253 303 -401 0
214 -275 15 0
-64 401 -305 0
-288 80 -15 0
-329 167 305 0
206 288 -387 0
329 -78 240 0
358 227 387 0
186 78 394 0
-358 -67 125 0
206 -394 -344 0
342 254 -125 0
249 348 -206 0
-285 -342 99 0
-233 343 194 0
189 256 344 0
233 170 -222 0
213 -217 -344 0
-355 -46 222 0
-213 -340 -337 0
265 -262 355 0
340 280 331 0
-197 262 9 0
-280 164 -286 0
-298 197 136 0
-261 28 286 0
-269 298 -391 0
261 -367 -131 0
-158 -356 269 0
367 380 -313 0
-123 353 356 0
-380 -315 -190 0
123 -351 101 0
176 129 190 0
351 -209 -70 0
-129 -184 -244 0
-266 -358 70 0
-19 116 184 0
266 -238 239 0
-116 179 5 0
-194 189 238 0
-256 -5 314 0
65 -173 -290 0
159 -171 -406 0
-65 357 -235 0
-242 406 114 0
377 140 -357 0
242 89 -327 0
-140 -339 201 0
-121 327 225 0
-111 339 -146 0
-120 112 -225 0
-370 146 267 0
-112 -51 405 0
370 73 113 0
216 -180 -405 0
-73 -341 -318 0
180 -253 363 0
-321 341 159 0
182 83 -363 0
321 291 -193 0
34 -10 -83 0
87 261 193 0
-82 10 -274 0
216 139 -261 0
-292 -187 82 0
-139 215 -297 0
187 -271 195 0
286 290 297 0
-233 171 -195 0
-403 -336 258 0
136 -398 37 0
-258 164 -280 0
-84 -37 197 0
-164 -278 -40 0
-197 177 -303 0
-91 40 -363 0
-177 152 381 0
363 359 -153 0
-152 -308 55 0
-77 393 -359 0
-140 308 147 0
-177 -393 -192 0
140 156 -145 0
-27 192 178 0
70 -72 -156 0
-328 -178 -366 0
-17 -70 91 0
63 366 -234 0
-59 -31 -91 0
234 -315 -86 0
-95 31 -399 0
315 -301 -36 0
-61 399 369 0
301 75 375 0
338 -369 -385 0
-96 -75 336 0
-338 309 -136 0
-219 147 -252 0
240 -201 330 0
219 -107 -84 0
201 296 -88 0
107 -43 -272 0
-296 316 -90 0
260 272 -5 0
90 58 252 0
69 -337 5 0
-281 255 -58 0
365 -287 -69 0
-130 -255 193 0
163 354 287 0
-119 -44 -193 0
3 -244 -163 0
81 -403 119 0
334 -7 244 0
-81 42 154 0
-334 23 -19 0
236 -96 -154 0
251 406 19 0
-236 202 368 0
310 -406 -326 0
-202 -185 -230 0
-310 143 -38 0
-248 27 185 0
38 256 252 0
-27 87 -330 0
294 57 20 0
-390 -183 76 0
367 -294 24 0
183 -212 111 0
-127 247 -24 0
170 -148 -111 0
-338 127 25 0
-265 268 148 0
-162 338 -116 0
98 -192 265 0
-380 162 288 0
-105 -98 -128 0
175 380 104 0
174 -376 105 0
172 -250 -175 0
101 376 -135 0
-172 -32 -282 0
135 175 161 0
32 114 -317 0
178 321 -161 0
-114 -191 110 0
-115 -361 -321 0
360 361 191 0
396 2 361 0
396 -12 -361 0
-63 332 -2 0
309 -396 -20 0
63 -12 390 0
295 -342 34 0
-50 -355 -394 0
-29 340 -34 0
-85 394 -208 0
-340 184 199 0
-133 85 397 0
-37 -184 1 0
-134 133 -6 0
97 -165 37 0
134 306 144 0
16 165 -374 0
-306 -52 48 0
-224 231 -16 0
142 -48 289 0
-171 224 -313 0
168 -325 -142 0
313 -404 -124 0
-104 -47 325 0
124 -83 -50 0
238 -373 104 0
312 83 -74 0
-278 -238 -324 0
-383 74 314 0
324 290 224 0
368 383 -11 0
26 66 -224 0
-295 -368 -198 0
-66 50 -86 0
-271 52 -51 0
386 -22 -345 0
-275 271 -402 0
-375 345 -391 0
350 -81 275 0
-56 375 127 0
397 371 81 0
318 -127 -102 0
-397 119 -304 0
181 33 -318 0
-119 138 174 0
207 352 -33 0
181 -138 -145 0
-352 123 350 0
276 145 -6 0
-123 -260 -194 0
-102 6 308 0
260 -339 335 0
148 -308 -281 0
371 -65 -335 0
281 228 283 0
65 347 21 0
-228 -15 237 0
-16 -21 -117 0
323 15 -388 0
16 46 -384 0
388 -88 -52 0
-386 -222 -46 0
279 352 -59 0
-366 -210 353 0
-378 59 -302 0
277 210 113 0
-346 -44 302 0
-219 -277 209 0
-384 205 44 0
-365 279 -209 0
-152 -270 -205 0
221 -75 365 0
152 289 227 0
73 75 -39 0
-227 -284 176 0
39 68 -211 0
-176 -285 -217 0
211 71 169 0
-398 217 -307 0
-169 -126 -94 0
398 89 207 0
126 -78 -246 0
-392 -89 82 0
246 300 110 0
134 264 -82 0
-300 -349 359 0
-264 -14 187 0
-228 349 -7 0
-187 -195 -352 0
-250 -353 228 0
-296 42 255 0
-235 322 -124 0
330 -121 -42 0
-109 364 -322 0
121 399 31 0
137 109 -30 0
-31 -335 -100 0
30 160 -191 0
311 335 345 0
383 257 -160 0
-212 -311 -21 0
-220 -383 173 0
132 212 210 0
392 -173 -378 0
-95 -204 -210 0
-392 -234 165 0
229 90 95 0
-69 163 -165 0
-229 381 -213 0
69 -263 -317 0
293 -54 -381 0
263 -269 157 0
-58 -169 -293 0
-166 -25 -157 0
-66 58 -243 0
25 172 302 0
71 243 -255 0
-395 -302 235 0
-115 53 35 0
231 -49 284 0
26 -53 316 0
-284 -243 -199 0
-4 254 -316 0
36 199 245 0
331 -188 -254 0
-36 -297 203 0
-331 141 259 0
18 -203 266 0
-141 -385 85 0
-266 -106 393 0
242 -85 133 0
106 370 336 0
185 -149 -242 0
-370 402 -382 0
149 -203 -125 0
-107 -402 295 0
203 -47 105 0
-401 -295 -247 0
-105 246 -369 0
247 273 -301 0
369 28 332 0
351 360 -273 0
106 257 -332 0
132 -351 -143 0
-35 -106 79 0
151 49 143 0
299 10 157 0
-24 -54 -8 0
226 -299 55 0
57 24 -79 0
-55 179 -319 0
79 -64 -196 0
-179 18 372 0
-326 -372 196 0
-405 -220 -18 0
40 372 -204 0
-230 405 -72 0
45 299 -40 0
230 -48 -92 0
259 -45 404 0
-112 48 80 0
-404 -188 282 0
112 325 118 0
-282 -141 276 0
-325 60 -161 0
141 150 -92 0
362 161 -17 0
-150 -74 20 0
-362 214 -248 0
93 -20 108 0
-61 -214 -8 0
162 -108 320 0
144 61 -157 0
-162 -146 8 0
168 320 56 0
-374 -272 -343 0
137 221 -168 0
341 343 -35 0
-137 -225 151 0
218 -122 -341 0
126 -166 -151 0
-305 -218 223 0
182 -126 -395 0
-312 -223 357 0
-182 387 -13 0
307 312 -11 0
-387 -154 -156 0
-307 -138 294 0
156 -273 -300 0
354 328 138 0
386 273 211 0
-328 3 -239 0
-390 -386 -208 0
-287 -264 239 0
135 390 -150 0
264 229 14 0
-236 68 -135 0
-270 103 -14 0
236 347 -45 0
-323 -103 333 0
-347 -56 183 0
-41 374 323 0
382 -98 -49 0
-304 -275 -215 0
98 -344 -2 0
-267 -400 215 0
30 -128 344 0
267 388 311 0
39 -30 376 0
-227 -388 9 0
-130 -253 -376 0
-254 241 227 0
-64 253 -306 0
-206 254 -43 0
64 186 -122 0
206 77 -262 0
-129 -186 -322 0
67 -200 -77 0
322 -274 -67 0
186 -67 -80 0
274 240 -200 0
80 -38 329 0
-240 167 -202 0
285 -100 -329 0
249 -167 180 0
-285 -153 4 0
-33 263 -249 0
377 -4 -167 0
-142 -382 33 0
-346 167 275 0
-99 265 358 0
-315 -389 313 0
-155 -265 -46 0
-149 -313 217 0
46 -117 -209 0
-155 -217 -164 0
343 209 364 0
164 1 -331 0
241 -343 189 0
337 -232 331 0
-94 -189 -391 0
283 131 -337 0
391 -120 9 0
23 -131 -189 0
-9 -131 101 0
-179 189 -62 0
-101 -218 353 0
179 244 334 0
93 -158 -353 0
-244 -32 19 0
-160 158 170 0
-314 -19 139 0
-170 239 -103 0
-176 314 205 0
136 245 -239 0
-28 176 362 0
-136 -358 190 0
310 28 315 0
-377 -318 333 0
-216 -233 97 0
109 318 -235 0
216 274 293 0
349 235 201 0
-274 -182 348 0
-201 -373 216 0
-159 182 251 0
-111 -216 -232 0
51 226 159 0
-400 111 215 0
-51 60 -34 0
-215 267 -22 0
249 34 -89 0
-267 159 -292 0
237 89 -114 0
-173 -159 -223 0
379 120 114 0
87 -41 173 0
292 53 -120 0
268 -87 113 0
-292 291 271 0
196 286 -113 0
-13 -271 121 0
-286 291 327 0
253 -319 -121 0
379 377 -291 0
-253 233 -29 0
328 -403 -62 0
387 -145 -381 0
403 -27 -329 0
-147 381 258 0
-153 27 -303 0
-342 95 147 0
-280 324 153 0
-95 -15 17 0
-401 -91 280 0
61 -17 -158 0
91 -86 -389 0
-356 -61 72 0
86 -36 206 0
214 -72 385 0
36 76 63 0
398 -385 288 0
348 -63 -77 0
-309 -198 -398 0
394 -177 77 0
309 59 -358 0
-277 177 375 0
303 -59 -99 0
-96 -375 -305 0
84 -125 -303 0
-278 96 -78 0
118 -84 -55 0
-108 278 -328 0
-298 145 55 0
-84 -355 -143 0
261 281 -96 0
-326 -222 84 0
248 -213 -281 0
326 -269 251 0
-380 44 -248 0
354 -356 -251 0
-44 230 -280 0
-233 -354 -7 0
-252 -230 286 0
-351 7 -337 0
252 -316 -116 0
337 -123 147 0
316 184 -368 0
256 -147 -262 0
403 368 340 0
-256 -298 -43 0
-403 -87 -344 0
-238 260 43 0
87 -42 190 0
-194 23 -260 0
42 130 367 0
365 -266 -23 0
-130 -5 88 0
-197 -365 3 0
-240 256 -88 0
-3 143 -70 0
-129 96 240 0
-288 -339 -317 0
-170 332 -225 0
317 73 104 0
242 -268 170 0
-193 -104 247 0
-112 192 268 0
-247 309 -341 0
-195 -192 -76 0
-309 367 -370 0
82 128 76 0
110 -367 -297 0
115 180 -128 0
-110 65 57 0
-83 -174 -115 0
-57 140 25 0
12 10 174 0
290 -12 -25 0
-396 -363 -12 0
-321 360 12 0
-171 -101 396 0
-282 -146 -360 0
187 101 212 0
282 261 -116 0
-178 -405 -212 0
-250 116 139 0
-175 178 406 0
288 250 357 0
327 -332 175 0
c 
p cnf 406 1624 
c 
